# EtOCS -- network connectivity scan -- with bulk modulus simulation

# trial parameter
variable a index 1.1 1.2 1.3 2.1 2.2 2.3 3.1 3.2 3.3 4.1 4.2 4.3 
# EtOCS precursor start moleculeID parameter
variable p index 1 1 1 1 1 1 1 1 1 1 1 1 
# EtOCS precursor end moleculeID parameter
variable q index 100 100 100 100 100 100 100 100 100 100 100 100 
# free O start atomID parameter
variable r index 401 401 401 401 401 401 401 401 401 401 401 401 
# free O end atomID parameter
variable s index 600 600 600 666 666 666 733 733 733 800 800 800 
# porogen start moleculeID parameter
variable t index 101 101 101 101 101 101 101 101 101 101 101 101 
# porogen end moleculeID parameter
variable v index 100 100 100 100 100 100 100 100 100 100 100 100 

log log_$a.lammps

#########################################################################
dimension 3
atom_style full

# bonded potentials
bond_style harmonic
angle_style harmonic
dihedral_style hybrid opls class2

boundary p p p
units metal
neighbor 2 bin
neigh_modify check yes

timestep 0.001

read_data data.EtOCS_100_$a

#########################################################################
# number of EtOCS precursors (referenced by moleculeID)
group precursors molecule <> $p $q

# number of free O atoms (referenced by atomID)
group freeO id <> $r $s

# number of porogen molecules (referenced by moleculeID)
group porogen molecule <> $t $v

group active union precursors freeO porogen
group activematrix union precursors freeO
group inactive subtract all active
delete_atoms group inactive

#########################################################################
#soft potential to push the atoms apart
pair_style soft 3
pair_coeff	* * 0 500 3

thermo_style custom step temp tave press pave lx ly lz vol epair etotal

fix 1		active nvt 6000 6000 0.0100 drag 2.00
thermo		1000
run		20000

thermo		1
minimize		1e-4 10000 10000

#########################################################################
# simulated annealing to create structure
pair_style sw
pair_coeff * * OCS.sw Si O C

thermo		100

unfix		1
fix		1 active npt 12000 6000 0.0100 xyz 90000 60000 0.1000 drag 2.00
run		10000

unfix		1
fix		1 active npt 6000 300 0.0100 xyz 60000 1 0.1000 drag 2.00
run		100000

unfix		1
fix		1 all npt 300 300 0.01 xyz 1 1 0.1 drag 2
fix		2 active rdf 2000 EtOCS_rdf_$a.txt 100 1 1 1 2 2 1 1 3 3 1 2 3 3 2 2 2 3 3
dump		1 porogen xyz 10000 porogen_*_$a.xyz
dump		2 active xyz 10000 EtOCS_*_$a.xyz
dump		3 activematrix xyz 10000 EtOCS_matrix_*_$a.xyz
run		10000
undump		1
undump		2
undump		3

#########################################################################
# remove the porogen molecules from the simulation and equilibrate the structure

delete_atoms group porogen

dump		1 active xyz 5000 EtOCS_*_$a.xyz

unfix		1
fix		1 all npt 300 300 0.01 xyz 1 1 0.1 drag 2
run		20000

#########################################################################
#apply setpwise pressure to measure modulus

unfix		1
fix		1 all npt 300 300 0.0100 xyz 5000 5000 0.1000 drag 2.00
run		20000

unfix		1
fix		1 all npt 300 300 0.0100 xyz 2500 2500 0.1000 drag 2.00
run		20000

unfix		1
fix		1 all npt 300 300 0.0100 xyz 1500 1500 0.1000 drag 2.00
run		20000

unfix		1
fix		1 all npt 300 300 0.0100 xyz 1000 1000 0.1000 drag 2.00
run		20000

unfix		1
fix		1 all npt 300 300 0.0100 xyz 500 500 0.1000 drag 2.00
run		20000

unfix		1
fix		1 all npt 300 300 0.0100 xyz 0 0 0.1000 drag 2.00
run		20000

unfix		1
fix		1 all npt 300 300 0.0100 xyz -500 -500 0.1000 drag 2.00
run		20000

unfix		1
fix		1 all npt 300 300 0.0100 xyz -1000 -1000 0.1000 drag 2.00
run		20000

unfix		1
fix		1 all npt 300 300 0.0100 xyz -1500 -1500 0.1000 drag 2.00
run		20000

unfix		1
fix		1 all npt 300 300 0.0100 xyz -2500 -2500 0.1000 drag 2.00
run		20000

unfix		1
fix		1 all npt 300 300 0.0100 xyz -5000 -5000 0.1000 drag 2.00
run		20000

#########################################################################
clear
next a
next p
next q
next r
next s
next t
next v
jump in.EtOCS